NAME : P132212.34143.tour
COMMENT : Length = 34143
COMMENT : Found by LKH-3 [Keld Helsgaun] Tue Dec 17 14:07:44 2024
TYPE : TOUR
DIMENSION : 170
TOUR_SECTION
1
161
2
92
94
102
88
98
100
64
108
63
113
107
89
115
78
70
106
82
79
83
90
101
87
75
77
81
99
85
95
68
72
76
91
97
74
73
109
71
84
116
67
93
111
105
103
69
66
80
65
112
114
86
96
110
104
162
3
163
4
164
5
155
129
130
157
122
149
154
148
147
119
125
140
124
152
141
134
153
137
121
131
139
156
120
138
136
123
151
159
133
118
135
127
146
144
145
150
158
117
128
143
132
142
126
160
165
6
166
7
167
8
20
47
35
38
53
50
54
28
39
34
62
22
12
56
42
37
43
21
15
14
52
48
23
60
24
16
36
57
40
27
26
19
18
17
13
45
58
46
59
30
41
49
61
32
33
44
11
31
29
55
51
25
168
9
169
10
170
-1
EOF
